NAME : portcgen-11-718
COMMENT : portcgen N=11, seed=718
TYPE : TSP
DIMENSION : 11
EDGE_WEIGHT_TYPE : EUC_2D
NODE_COORD_SECTION
1 -97437 -385426
2 -250397 -41278
3 -90488 341795
4 -156046 283154
5 -628682 243389
6 222483 -72839
7 47657 -36551
8 343127 148336
9 464511 -201091
10 268332 284230
11 -678096 509571
